[Molden Format]
generated by GANSU
[Atoms] (AU)
O 1 8 0 0 0.239995
H 2 1 0 1.43241 -0.961871
H 3 1 0 -1.43241 -0.961871
[GTO]
1 0
 s 3 1.00
	130.709 0.154329
	23.8089 0.535328
	6.44361 0.444635
 s 3 1.00
	5.03315 -0.0999672
	1.1696 0.399513
	0.380389 0.700115
 p 3 1.00
	5.03315 0.155916
	1.1696 0.607684
	0.380389 0.391957

2 0
 s 3 1.00
	3.42525 0.154329
	0.623914 0.535328
	0.168855 0.444635

3 0
 s 3 1.00
	3.42525 0.154329
	0.623914 0.535328
	0.168855 0.444635


[MO]
Sym= A
Ene= -18.6099
Spin= Alpha
Occup= 2
 1 0.99293320762041148
 2 0.031594878763894101
 3 -4.0419108130701036e-17
 4 -1.6414509586746395e-16
 5 -0.0034492345589239651
 6 -0.0073875851222048395
 7 -0.0073875851222044587
Sym= A
Ene= -0.88792788566451553
Spin= Alpha
Occup= 2
 1 -0.24346843196751844
 2 0.88044697659633198
 3 -1.8750793806922047e-16
 4 -2.2424024128633689e-15
 5 -0.079821625113379036
 6 0.12919240918263966
 7 0.12919240918264799
Sym= A
Ene= -0.25172376591078366
Spin= Alpha
Occup= 2
 1 2.8533468000596015e-15
 2 -1.1608962581691982e-14
 3 2.1146852002054831e-16
 4 -0.37692217920264692
 5 1.3109158871208525e-15
 6 -0.53460034461883155
 7 0.53460034461883921
Sym= A
Ene= -0.096203971172860656
Spin= Alpha
Occup= 2
 1 0.11937283962975598
 2 -0.6545308023036891
 3 6.0170705459661253e-16
 4 5.8499310325062377e-15
 5 -0.44179727628670712
 6 0.4492557199341457
 7 0.44925571993414948
Sym= A
Ene= 0.15526208813797235
Spin= Alpha
Occup= 2
 1 1.2303679256622316e-16
 2 -8.0610574520047655e-16
 3 -0.74566095424985335
 4 -2.2712312973312388e-16
 5 -1.4923452891425692e-16
 6 5.6297296657513081e-16
 7 5.4542314466934059e-16
Sym= A
Ene= 0.38591398159564044
Spin= Alpha
Occup= 0
 1 -0.10159533939803604
 2 0.68646834359984388
 3 -4.4642955127788596e-18
 4 -9.9296639695081947e-15
 5 -0.66984364487535675
 6 -0.69589853782948763
 7 -0.69589853782950051
Sym= A
Ene= 0.50231357481371497
Spin= Alpha
Occup= 0
 1 1.6724189819796585e-15
 2 -1.0428247417825621e-14
 3 7.0053479654035437e-17
 4 -0.76077555214878012
 5 4.8256497769546323e-15
 6 0.76132809241884747
 7 -0.76132809241882715
